0 8954 
1 8934 
2 8854 
3 8806 
4 8746 
5 8682 
6 8314 
7 8258 
8 8114 
9 7966 
10 7964 
11 7952 
12 7922 
13 7776 
14 7632 
15 7524 
16 7506 
17 7412 
18 7298 
19 7280 
20 7172 
21 7138 
22 7078 
23 7048 
24 7018 
25 6938 
26 6890 
27 6752 
28 6678 
29 6666 
30 6488 
31 6386 
32 6360 
33 6246 
34 6162 
35 6126 
36 6120 
37 5908 
38 5860 
39 5732 
40 5672 
41 5646 
42 5454 
43 5390 
44 5388 
45 5240 
46 5032 
47 4952 
48 4856 
49 4832 
50 4804 
51 4658 
52 4584 
53 4532 
54 4296 
55 4270 
56 4190 
57 3994 
58 3858 
59 3786 
60 3714 
61 3678 
62 3614 
63 3362 
64 3346 
65 3282 
66 3250 
67 3184 
68 3172 
69 3172 
70 3172 
71 3172 
72 3172 
73 3172 
74 3140 
75 3140 

